NAME : n40w60.002.509.tour
COMMENT : Length = 509
COMMENT : Found by LKH [Keld Helsgaun] Tue May  2 05:46:14 2017
TYPE : TOUR
DIMENSION : 41
TOUR_SECTION
1
39
35
29
9
7
21
31
15
4
19
25
27
16
28
2
11
36
14
34
10
6
18
3
26
30
13
20
22
24
38
17
12
5
23
33
37
32
41
40
8
-1
EOF
